NAME : S-G-150-20.2247.tour
COMMENT : Length = 2247
COMMENT : Found by LKH [Keld Helsgaun] Thu May 17 23:18:21 2018
TYPE : TOUR
DIMENSION : 31
TOUR_SECTION
1
5
2
12
9
13
20
19
28
22
27
29
25
23
11
6
7
15
3
30
18
21
24
26
17
10
14
4
8
16
31
-1
EOF
